n_res = 4;
rc = [ 0, 0, 0, 0 ];
n_tasks = 30;
d = [ 6, 7, 6, 4, 7, 6, 7, 8, 7, 9, 5, 9, 7, 1, 10, 2, 6, 10, 10, 3, 5, 1, 3, 9, 2, 8, 6, 3, 5, 8 ];
rr = [| 0, 0, 0, 0, 0, 0, 0, 0, 0, 0, 0, 0, 0, 0, 0, 0, 0, 0, 0, 0, 0, 0, 0, 0, 0, 0, 0, 0, 0, 0
      | 0, 0, 0, 0, 0, 0, 0, 0, 0, 0, 0, 0, 0, 0, 0, 0, 0, 0, 0, 0, 0, 0, 0, 0, 0, 0, 0, 0, 0, 0
      | 0, 0, 0, 0, 0, 0, 0, 0, 0, 0, 0, 0, 0, 0, 0, 0, 0, 0, 0, 0, 0, 0, 0, 0, 0, 0, 0, 0, 0, 0
      | 0, 0, 0, 0, 0, 0, 0, 0, 0, 0, 0, 0, 0, 0, 0, 0, 0, 0, 0, 0, 0, 0, 0, 0, 0, 0, 0, 0, 0, 0 |];
suc = [ { 4, 7, 9 },
       { 16, 28 },
       { 5, 6, 16 },
       { 6, 17, 21 },
       { 10, 11, 12 },
       { 8 },
       { 13, 24, 28 },
       { 10, 18 },
       { 15, 19, 25 },
       { 19 },
       { 20, 22, 26 },
       { 13, 14, 23 },
       { 19, 30 },
       { 24, 29 },
       { 22, 26 },
       { 20 },
       { 18 },
       { 23 },
       { 22 },
       { 21, 23, 24 },
       { 27 },
       { 27 },
       { 27 },
       { 30 },
       { 26, 28 },
       { 29, 30 },
       { 29 },
       {  },
       {  },
       {  } ];
